\ENCODING=ISO-8859-1
\Problem name: instances

Maximize
 obj:
Subject To
 c1: 667 x1 + 476 x2 + 529 x3 + 307 x4 + 734 x5 + 615 x6 + 192 x7 + 966 x8
     + 925 x9 + 887 x10 + 603 x11 + 748 x12 + 765 x13 + 167 x14 + 888 x15
     + 75 x16 + 205 x17 + 820 x18 + 561 x19 + 818 x20 + 39 x21 + 972 x22
     + 55 x23 + 604 x24 + 234 x25 + 496 x26 + 404 x27 + 279 x28 + 717 x29
     + 5 x30 + 866 x31 + 384 x32 + 481 x33 + 395 x34 + 691 x35 + 214 x36
     + 9 x37 + 882 x38 + 180 x39 + 934 x40 + 769 x41 + 782 x42 + 681 x43
     + 534 x44 + 949 x45 + 569 x46 + 608 x47 + 153 x48 + 388 x49 + 169 x50
     + 971 x51 + 427 x52 + 141 x53 + 26 x54 + 30 x55 + 374 x56 + 522 x57
     + 434 x58 + 653 x59 + 239 x60 + 439 x61 + 518 x62 + 622 x63 + 919 x64
     + 913 x65 + 313 x66 + 132 x67 + 922 x68 + 194 x69 + 311 x70 + 855 x71
     + 963 x72 + 93 x73 + 536 x74 + 496 x75 + 41 x76 + 104 x77 + 104 x78
     + 194 x79 + 492 x80 + 272 x81 + 164 x82 + 918 x83 + 413 x84 + 190 x85
     + 948 x86 + 786 x87 + 711 x88 + 381 x89 + 438 x90 + 949 x91 + 819 x92
     + 956 x93 + 571 x94 + 738 x95 + 869 x96 + 883 x97 + 869 x98 + 790 x99
     + 77 x100 <= 26055
Bounds
 0 <= x1 <= 1
 0 <= x2 <= 1
 0 <= x3 <= 1
 0 <= x4 <= 1
 0 <= x5 <= 1
 0 <= x6 <= 1
 0 <= x7 <= 1
 0 <= x8 <= 1
 0 <= x9 <= 1
 0 <= x10 <= 1
 0 <= x11 <= 1
 0 <= x12 <= 1
 0 <= x13 <= 1
 0 <= x14 <= 1
 0 <= x15 <= 1
 0 <= x16 <= 1
 0 <= x17 <= 1
 0 <= x18 <= 1
 0 <= x19 <= 1
 0 <= x20 <= 1
 0 <= x21 <= 1
 0 <= x22 <= 1
 0 <= x23 <= 1
 0 <= x24 <= 1
 0 <= x25 <= 1
 0 <= x26 <= 1
 0 <= x27 <= 1
 0 <= x28 <= 1
 0 <= x29 <= 1
 0 <= x30 <= 1
 0 <= x31 <= 1
 0 <= x32 <= 1
 0 <= x33 <= 1
 0 <= x34 <= 1
 0 <= x35 <= 1
 0 <= x36 <= 1
 0 <= x37 <= 1
 0 <= x38 <= 1
 0 <= x39 <= 1
 0 <= x40 <= 1
 0 <= x41 <= 1
 0 <= x42 <= 1
 0 <= x43 <= 1
 0 <= x44 <= 1
 0 <= x45 <= 1
 0 <= x46 <= 1
 0 <= x47 <= 1
 0 <= x48 <= 1
 0 <= x49 <= 1
 0 <= x50 <= 1
 0 <= x51 <= 1
 0 <= x52 <= 1
 0 <= x53 <= 1
 0 <= x54 <= 1
 0 <= x55 <= 1
 0 <= x56 <= 1
 0 <= x57 <= 1
 0 <= x58 <= 1
 0 <= x59 <= 1
 0 <= x60 <= 1
 0 <= x61 <= 1
 0 <= x62 <= 1
 0 <= x63 <= 1
 0 <= x64 <= 1
 0 <= x65 <= 1
 0 <= x66 <= 1
 0 <= x67 <= 1
 0 <= x68 <= 1
 0 <= x69 <= 1
 0 <= x70 <= 1
 0 <= x71 <= 1
 0 <= x72 <= 1
 0 <= x73 <= 1
 0 <= x74 <= 1
 0 <= x75 <= 1
 0 <= x76 <= 1
 0 <= x77 <= 1
 0 <= x78 <= 1
 0 <= x79 <= 1
 0 <= x80 <= 1
 0 <= x81 <= 1
 0 <= x82 <= 1
 0 <= x83 <= 1
 0 <= x84 <= 1
 0 <= x85 <= 1
 0 <= x86 <= 1
 0 <= x87 <= 1
 0 <= x88 <= 1
 0 <= x89 <= 1
 0 <= x90 <= 1
 0 <= x91 <= 1
 0 <= x92 <= 1
 0 <= x93 <= 1
 0 <= x94 <= 1
 0 <= x95 <= 1
 0 <= x96 <= 1
 0 <= x97 <= 1
 0 <= x98 <= 1
 0 <= x99 <= 1
 0 <= x100 <= 1
Binaries
 x1  x2  x3  x4  x5  x6  x7  x8  x9  x10  x11  x12  x13  x14  x15  x16  x17 
 x18  x19  x20  x21  x22  x23  x24  x25  x26  x27  x28  x29  x30  x31  x32 
 x33  x34  x35  x36  x37  x38  x39  x40  x41  x42  x43  x44  x45  x46  x47 
 x48  x49  x50  x51  x52  x53  x54  x55  x56  x57  x58  x59  x60  x61  x62 
 x63  x64  x65  x66  x67  x68  x69  x70  x71  x72  x73  x74  x75  x76  x77 
 x78  x79  x80  x81  x82  x83  x84  x85  x86  x87  x88  x89  x90  x91  x92 
 x93  x94  x95  x96  x97  x98  x99  x100 
End
